c description: Tseitin formula on Random 4-regular graph of 85 vertices, with odd charge
c generator: CNFgen (0.9.2)
c copyright: (C) 2012-2022 Massimo Lauria <massimo.lauria@uniroma1.it>
c url: https://massimolauria.net/cnfgen
c command line: cnfgen tseitin 85 4
c
p cnf 170 680
1 2 3 4 0
1 2 -3 -4 0
1 -2 3 -4 0
1 -2 -3 4 0
-1 2 3 -4 0
-1 2 -3 4 0
-1 -2 3 4 0
-1 -2 -3 -4 0
1 5 6 7 0
1 5 -6 -7 0
1 -5 6 -7 0
1 -5 -6 7 0
-1 5 6 -7 0
-1 5 -6 7 0
-1 -5 6 7 0
-1 -5 -6 -7 0
8 9 10 11 0
8 9 -10 -11 0
8 -9 10 -11 0
8 -9 -10 11 0
-8 9 10 -11 0
-8 9 -10 11 0
-8 -9 10 11 0
-8 -9 -10 -11 0
8 12 13 -14 0
8 12 -13 14 0
8 -12 13 14 0
8 -12 -13 -14 0
-8 12 13 14 0
-8 12 -13 -14 0
-8 -12 13 -14 0
-8 -12 -13 14 0
15 16 17 -18 0
15 16 -17 18 0
15 -16 17 18 0
15 -16 -17 -18 0
-15 16 17 18 0
-15 16 -17 -18 0
-15 -16 17 -18 0
-15 -16 -17 18 0
19 20 21 -22 0
19 20 -21 22 0
19 -20 21 22 0
19 -20 -21 -22 0
-19 20 21 22 0
-19 20 -21 -22 0
-19 -20 21 -22 0
-19 -20 -21 22 0
12 23 24 25 0
12 23 -24 -25 0
12 -23 24 -25 0
12 -23 -24 25 0
-12 23 24 -25 0
-12 23 -24 25 0
-12 -23 24 25 0
-12 -23 -24 -25 0
26 27 28 29 0
26 27 -28 -29 0
26 -27 28 -29 0
26 -27 -28 29 0
-26 27 28 -29 0
-26 27 -28 29 0
-26 -27 28 29 0
-26 -27 -28 -29 0
15 30 31 -32 0
15 30 -31 32 0
15 -30 31 32 0
15 -30 -31 -32 0
-15 30 31 32 0
-15 30 -31 -32 0
-15 -30 31 -32 0
-15 -30 -31 32 0
33 34 35 36 0
33 34 -35 -36 0
33 -34 35 -36 0
33 -34 -35 36 0
-33 34 35 -36 0
-33 34 -35 36 0
-33 -34 35 36 0
-33 -34 -35 -36 0
19 37 38 -39 0
19 37 -38 39 0
19 -37 38 39 0
19 -37 -38 -39 0
-19 37 38 39 0
-19 37 -38 -39 0
-19 -37 38 -39 0
-19 -37 -38 39 0
40 41 42 43 0
40 41 -42 -43 0
40 -41 42 -43 0
40 -41 -42 43 0
-40 41 42 -43 0
-40 41 -42 43 0
-40 -41 42 43 0
-40 -41 -42 -43 0
44 45 46 -47 0
44 45 -46 47 0
44 -45 46 47 0
44 -45 -46 -47 0
-44 45 46 47 0
-44 45 -46 -47 0
-44 -45 46 -47 0
-44 -45 -46 47 0
48 49 50 51 0
48 49 -50 -51 0
48 -49 50 -51 0
48 -49 -50 51 0
-48 49 50 -51 0
-48 49 -50 51 0
-48 -49 50 51 0
-48 -49 -50 -51 0
52 53 54 55 0
52 53 -54 -55 0
52 -53 54 -55 0
52 -53 -54 55 0
-52 53 54 -55 0
-52 53 -54 55 0
-52 -53 54 55 0
-52 -53 -54 -55 0
40 56 57 58 0
40 56 -57 -58 0
40 -56 57 -58 0
40 -56 -57 58 0
-40 56 57 -58 0
-40 56 -57 58 0
-40 -56 57 58 0
-40 -56 -57 -58 0
59 60 61 -62 0
59 60 -61 62 0
59 -60 61 62 0
59 -60 -61 -62 0
-59 60 61 62 0
-59 60 -61 -62 0
-59 -60 61 -62 0
-59 -60 -61 62 0
16 63 64 -65 0
16 63 -64 65 0
16 -63 64 65 0
16 -63 -64 -65 0
-16 63 64 65 0
-16 63 -64 -65 0
-16 -63 64 -65 0
-16 -63 -64 65 0
5 66 67 -68 0
5 66 -67 68 0
5 -66 67 68 0
5 -66 -67 -68 0
-5 66 67 68 0
-5 66 -67 -68 0
-5 -66 67 -68 0
-5 -66 -67 68 0
26 69 70 71 0
26 69 -70 -71 0
26 -69 70 -71 0
26 -69 -70 71 0
-26 69 70 -71 0
-26 69 -70 71 0
-26 -69 70 71 0
-26 -69 -70 -71 0
59 72 73 74 0
59 72 -73 -74 0
59 -72 73 -74 0
59 -72 -73 74 0
-59 72 73 -74 0
-59 72 -73 74 0
-59 -72 73 74 0
-59 -72 -73 -74 0
75 76 77 -78 0
75 76 -77 78 0
75 -76 77 78 0
75 -76 -77 -78 0
-75 76 77 78 0
-75 76 -77 -78 0
-75 -76 77 -78 0
-75 -76 -77 78 0
23 79 80 81 0
23 79 -80 -81 0
23 -79 80 -81 0
23 -79 -80 81 0
-23 79 80 -81 0
-23 79 -80 81 0
-23 -79 80 81 0
-23 -79 -80 -81 0
82 83 84 -85 0
82 83 -84 85 0
82 -83 84 85 0
82 -83 -84 -85 0
-82 83 84 85 0
-82 83 -84 -85 0
-82 -83 84 -85 0
-82 -83 -84 85 0
48 63 86 87 0
48 63 -86 -87 0
48 -63 86 -87 0
48 -63 -86 87 0
-48 63 86 -87 0
-48 63 -86 87 0
-48 -63 86 87 0
-48 -63 -86 -87 0
88 89 90 91 0
88 89 -90 -91 0
88 -89 90 -91 0
88 -89 -90 91 0
-88 89 90 -91 0
-88 89 -90 91 0
-88 -89 90 91 0
-88 -89 -90 -91 0
44 72 92 -93 0
44 72 -92 93 0
44 -72 92 93 0
44 -72 -92 -93 0
-44 72 92 93 0
-44 72 -92 -93 0
-44 -72 92 -93 0
-44 -72 -92 93 0
45 94 95 -96 0
45 94 -95 96 0
45 -94 95 96 0
45 -94 -95 -96 0
-45 94 95 96 0
-45 94 -95 -96 0
-45 -94 95 -96 0
-45 -94 -95 96 0
37 73 97 98 0
37 73 -97 -98 0
37 -73 97 -98 0
37 -73 -97 98 0
-37 73 97 -98 0
-37 73 -97 98 0
-37 -73 97 98 0
-37 -73 -97 -98 0
88 99 100 -101 0
88 99 -100 101 0
88 -99 100 101 0
88 -99 -100 -101 0
-88 99 100 101 0
-88 99 -100 -101 0
-88 -99 100 -101 0
-88 -99 -100 101 0
20 74 102 -103 0
20 74 -102 103 0
20 -74 102 103 0
20 -74 -102 -103 0
-20 74 102 103 0
-20 74 -102 -103 0
-20 -74 102 -103 0
-20 -74 -102 103 0
52 104 105 106 0
52 104 -105 -106 0
52 -104 105 -106 0
52 -104 -105 106 0
-52 104 105 -106 0
-52 104 -105 106 0
-52 -104 105 106 0
-52 -104 -105 -106 0
75 107 108 -109 0
75 107 -108 109 0
75 -107 108 109 0
75 -107 -108 -109 0
-75 107 108 109 0
-75 107 -108 -109 0
-75 -107 108 -109 0
-75 -107 -108 109 0
24 69 82 110 0
24 69 -82 -110 0
24 -69 82 -110 0
24 -69 -82 110 0
-24 69 82 -110 0
-24 69 -82 110 0
-24 -69 82 110 0
-24 -69 -82 -110 0
21 102 107 -111 0
21 102 -107 111 0
21 -102 107 111 0
21 -102 -107 -111 0
-21 102 107 111 0
-21 102 -107 -111 0
-21 -102 107 -111 0
-21 -102 -107 111 0
92 111 112 -113 0
92 111 -112 113 0
92 -111 112 113 0
92 -111 -112 -113 0
-92 111 112 113 0
-92 111 -112 -113 0
-92 -111 112 -113 0
-92 -111 -112 113 0
27 89 104 -114 0
27 89 -104 114 0
27 -89 104 114 0
27 -89 -104 -114 0
-27 89 104 114 0
-27 89 -104 -114 0
-27 -89 104 -114 0
-27 -89 -104 114 0
70 90 108 115 0
70 90 -108 -115 0
70 -90 108 -115 0
70 -90 -108 115 0
-70 90 108 -115 0
-70 90 -108 115 0
-70 -90 108 115 0
-70 -90 -108 -115 0
60 94 97 -116 0
60 94 -97 116 0
60 -94 97 116 0
60 -94 -97 -116 0
-60 94 97 116 0
-60 94 -97 -116 0
-60 -94 97 -116 0
-60 -94 -97 116 0
66 117 118 -119 0
66 117 -118 119 0
66 -117 118 119 0
66 -117 -118 -119 0
-66 117 118 119 0
-66 117 -118 -119 0
-66 -117 118 -119 0
-66 -117 -118 119 0
2 83 120 -121 0
2 83 -120 121 0
2 -83 120 121 0
2 -83 -120 -121 0
-2 83 120 121 0
-2 83 -120 -121 0
-2 -83 120 -121 0
-2 -83 -120 121 0
109 122 123 124 0
109 122 -123 -124 0
109 -122 123 -124 0
109 -122 -123 124 0
-109 122 123 -124 0
-109 122 -123 124 0
-109 -122 123 124 0
-109 -122 -123 -124 0
56 98 122 125 0
56 98 -122 -125 0
56 -98 122 -125 0
56 -98 -122 125 0
-56 98 122 -125 0
-56 98 -122 125 0
-56 -98 122 125 0
-56 -98 -122 -125 0
61 112 126 127 0
61 112 -126 -127 0
61 -112 126 -127 0
61 -112 -126 127 0
-61 112 126 -127 0
-61 112 -126 127 0
-61 -112 126 127 0
-61 -112 -126 -127 0
33 38 99 -128 0
33 38 -99 128 0
33 -38 99 128 0
33 -38 -99 -128 0
-33 38 99 128 0
-33 38 -99 -128 0
-33 -38 99 -128 0
-33 -38 -99 128 0
129 130 131 -132 0
129 130 -131 132 0
129 -130 131 132 0
129 -130 -131 -132 0
-129 130 131 132 0
-129 130 -131 -132 0
-129 -130 131 -132 0
-129 -130 -131 132 0
34 41 123 -133 0
34 41 -123 133 0
34 -41 123 133 0
34 -41 -123 -133 0
-34 41 123 133 0
-34 41 -123 -133 0
-34 -41 123 -133 0
-34 -41 -123 133 0
134 135 136 -137 0
134 135 -136 137 0
134 -135 136 137 0
134 -135 -136 -137 0
-134 135 136 137 0
-134 135 -136 -137 0
-134 -135 136 -137 0
-134 -135 -136 137 0
3 138 139 140 0
3 138 -139 -140 0
3 -138 139 -140 0
3 -138 -139 140 0
-3 138 139 -140 0
-3 138 -139 140 0
-3 -138 139 140 0
-3 -138 -139 -140 0
6 49 67 141 0
6 49 -67 -141 0
6 -49 67 -141 0
6 -49 -67 141 0
-6 49 67 -141 0
-6 49 -67 141 0
-6 -49 67 141 0
-6 -49 -67 -141 0
25 120 142 143 0
25 120 -142 -143 0
25 -120 142 -143 0
25 -120 -142 143 0
-25 120 142 -143 0
-25 120 -142 143 0
-25 -120 142 143 0
-25 -120 -142 -143 0
28 117 144 145 0
28 117 -144 -145 0
28 -117 144 -145 0
28 -117 -144 145 0
-28 117 144 -145 0
-28 117 -144 145 0
-28 -117 144 145 0
-28 -117 -144 -145 0
86 115 146 -147 0
86 115 -146 147 0
86 -115 146 147 0
86 -115 -146 -147 0
-86 115 146 147 0
-86 115 -146 -147 0
-86 -115 146 -147 0
-86 -115 -146 147 0
30 57 146 -148 0
30 57 -146 148 0
30 -57 146 148 0
30 -57 -146 -148 0
-30 57 146 148 0
-30 57 -146 -148 0
-30 -57 146 -148 0
-30 -57 -146 148 0
76 84 126 -149 0
76 84 -126 149 0
76 -84 126 149 0
76 -84 -126 -149 0
-76 84 126 149 0
-76 84 -126 -149 0
-76 -84 126 -149 0
-76 -84 -126 149 0
113 150 151 -152 0
113 150 -151 152 0
113 -150 151 152 0
113 -150 -151 -152 0
-113 150 151 152 0
-113 150 -151 -152 0
-113 -150 151 -152 0
-113 -150 -151 152 0
46 153 154 155 0
46 153 -154 -155 0
46 -153 154 -155 0
46 -153 -154 155 0
-46 153 154 -155 0
-46 153 -154 155 0
-46 -153 154 155 0
-46 -153 -154 -155 0
42 64 156 -157 0
42 64 -156 157 0
42 -64 156 157 0
42 -64 -156 -157 0
-42 64 156 157 0
-42 64 -156 -157 0
-42 -64 156 -157 0
-42 -64 -156 157 0
4 141 158 -159 0
4 141 -158 159 0
4 -141 158 159 0
4 -141 -158 -159 0
-4 141 158 159 0
-4 141 -158 -159 0
-4 -141 158 -159 0
-4 -141 -158 159 0
91 95 129 160 0
91 95 -129 -160 0
91 -95 129 -160 0
91 -95 -129 160 0
-91 95 129 -160 0
-91 95 -129 160 0
-91 -95 129 160 0
-91 -95 -129 -160 0
9 68 142 -149 0
9 68 -142 149 0
9 -68 142 149 0
9 -68 -142 -149 0
-9 68 142 149 0
-9 68 -142 -149 0
-9 -68 142 -149 0
-9 -68 -142 149 0
133 150 153 161 0
133 150 -153 -161 0
133 -150 153 -161 0
133 -150 -153 161 0
-133 150 153 -161 0
-133 150 -153 161 0
-133 -150 153 161 0
-133 -150 -153 -161 0
53 85 156 162 0
53 85 -156 -162 0
53 -85 156 -162 0
53 -85 -156 162 0
-53 85 156 -162 0
-53 85 -156 162 0
-53 -85 156 162 0
-53 -85 -156 -162 0
87 124 163 164 0
87 124 -163 -164 0
87 -124 163 -164 0
87 -124 -163 164 0
-87 124 163 -164 0
-87 124 -163 164 0
-87 -124 163 164 0
-87 -124 -163 -164 0
79 130 144 165 0
79 130 -144 -165 0
79 -130 144 -165 0
79 -130 -144 165 0
-79 130 144 -165 0
-79 130 -144 165 0
-79 -130 144 165 0
-79 -130 -144 -165 0
105 131 154 166 0
105 131 -154 -166 0
105 -131 154 -166 0
105 -131 -154 166 0
-105 131 154 -166 0
-105 131 -154 166 0
-105 -131 154 166 0
-105 -131 -154 -166 0
93 128 134 148 0
93 128 -134 -148 0
93 -128 134 -148 0
93 -128 -134 148 0
-93 128 134 -148 0
-93 128 -134 148 0
-93 -128 134 148 0
-93 -128 -134 -148 0
43 50 167 -168 0
43 50 -167 168 0
43 -50 167 168 0
43 -50 -167 -168 0
-43 50 167 168 0
-43 50 -167 -168 0
-43 -50 167 -168 0
-43 -50 -167 168 0
80 96 118 145 0
80 96 -118 -145 0
80 -96 118 -145 0
80 -96 -118 145 0
-80 96 118 -145 0
-80 96 -118 145 0
-80 -96 118 145 0
-80 -96 -118 -145 0
29 58 143 147 0
29 58 -143 -147 0
29 -58 143 -147 0
29 -58 -143 147 0
-29 58 143 -147 0
-29 58 -143 147 0
-29 -58 143 147 0
-29 -58 -143 -147 0
13 17 121 -138 0
13 17 -121 138 0
13 -17 121 138 0
13 -17 -121 -138 0
-13 17 121 138 0
-13 17 -121 -138 0
-13 -17 121 -138 0
-13 -17 -121 138 0
35 65 110 165 0
35 65 -110 -165 0
35 -65 110 -165 0
35 -65 -110 165 0
-35 65 110 -165 0
-35 65 -110 165 0
-35 -65 110 165 0
-35 -65 -110 -165 0
36 81 103 167 0
36 81 -103 -167 0
36 -81 103 -167 0
36 -81 -103 167 0
-36 81 103 -167 0
-36 81 -103 167 0
-36 -81 103 167 0
-36 -81 -103 -167 0
10 31 163 -169 0
10 31 -163 169 0
10 -31 163 169 0
10 -31 -163 -169 0
-10 31 163 169 0
-10 31 -163 -169 0
-10 -31 163 -169 0
-10 -31 -163 169 0
18 114 162 -168 0
18 114 -162 168 0
18 -114 162 168 0
18 -114 -162 -168 0
-18 114 162 168 0
-18 114 -162 -168 0
-18 -114 162 -168 0
-18 -114 -162 168 0
22 100 119 151 0
22 100 -119 -151 0
22 -100 119 -151 0
22 -100 -119 151 0
-22 100 119 -151 0
-22 100 -119 151 0
-22 -100 119 151 0
-22 -100 -119 -151 0
77 125 152 -157 0
77 125 -152 157 0
77 -125 152 157 0
77 -125 -152 -157 0
-77 125 152 157 0
-77 125 -152 -157 0
-77 -125 152 -157 0
-77 -125 -152 157 0
39 116 139 169 0
39 116 -139 -169 0
39 -116 139 -169 0
39 -116 -139 169 0
-39 116 139 -169 0
-39 116 -139 169 0
-39 -116 139 169 0
-39 -116 -139 -169 0
54 101 135 158 0
54 101 -135 -158 0
54 -101 135 -158 0
54 -101 -135 158 0
-54 101 135 -158 0
-54 101 -135 158 0
-54 -101 135 158 0
-54 -101 -135 -158 0
14 32 127 161 0
14 32 -127 -161 0
14 -32 127 -161 0
14 -32 -127 161 0
-14 32 127 -161 0
-14 32 -127 161 0
-14 -32 127 161 0
-14 -32 -127 -161 0
71 136 160 -166 0
71 136 -160 166 0
71 -136 160 166 0
71 -136 -160 -166 0
-71 136 160 166 0
-71 136 -160 -166 0
-71 -136 160 -166 0
-71 -136 -160 166 0
7 11 159 164 0
7 11 -159 -164 0
7 -11 159 -164 0
7 -11 -159 164 0
-7 11 159 -164 0
-7 11 -159 164 0
-7 -11 159 164 0
-7 -11 -159 -164 0
78 132 140 170 0
78 132 -140 -170 0
78 -132 140 -170 0
78 -132 -140 170 0
-78 132 140 -170 0
-78 132 -140 170 0
-78 -132 140 170 0
-78 -132 -140 -170 0
47 62 155 170 0
47 62 -155 -170 0
47 -62 155 -170 0
47 -62 -155 170 0
-47 62 155 -170 0
-47 62 -155 170 0
-47 -62 155 170 0
-47 -62 -155 -170 0
51 55 106 -137 0
51 55 -106 137 0
51 -55 106 137 0
51 -55 -106 -137 0
-51 55 106 137 0
-51 55 -106 -137 0
-51 -55 106 -137 0
-51 -55 -106 137 0
